
Gurobi 9.1.2 (win64) logging started Mon Dec  6 14:02:58 2021

Gurobi Optimizer version 9.1.2 build v9.1.2rc0 (win64)
Thread count: 8 physical cores, 8 logical processors, using up to 8 threads
Optimize a model with 1 rows, 52 columns and 51 nonzeros
Model fingerprint: 0xca17ce3d
Variable types: 1 continuous, 51 integer (51 binary)
Coefficient statistics:
  Matrix range     [1e+00, 1e+01]
  Objective range  [1e+00, 1e+00]
  Bounds range     [3e+01, 3e+01]
  RHS range        [1e+01, 1e+01]
Presolve time: 0.00s
Presolved: 1 rows, 52 columns, 51 nonzeros
Variable types: 1 continuous, 51 integer (51 binary)

Root simplex log...

Iteration    Objective       Primal Inf.    Dual Inf.      Time
       0   -2.7890537e+01   1.692892e-01   0.000000e+00     15s
       3   -2.7890537e+01   0.000000e+00   0.000000e+00     15s

Root relaxation: objective -2.789054e+01, 3 iterations, 0.00 seconds

    Nodes    |    Current Node    |     Objective Bounds      |     Work
 Expl Unexpl |  Obj  Depth IntInf | Incumbent    BestBd   Gap | It/Node Time

     0     0  -27.89054    0    3          -  -27.89054      -     -   14s
H    0     0                       0.6703986  -27.89054  4260%     -   15s
H    0     0                      -1.1549020  -27.89054  2315%     -   15s
H    0     0                      -1.6022337  -27.89054  1641%     -   15s
     0     0  -27.89054    0    5   -1.60223  -27.89054  1641%     -   15s
     0     0  -25.22176    0    6   -1.60223  -25.22176  1474%     -   15s
     0     0  -23.85971    0    7   -1.60223  -23.85971  1389%     -   15s
     0     0  -23.42189    0    7   -1.60223  -23.42189  1362%     -   15s
     0     0  -22.46030    0    6   -1.60223  -22.46030  1302%     -   15s
     0     0  -21.38683    0    6   -1.60223  -21.38683  1235%     -   15s
     0     0  -19.90204    0    7   -1.60223  -19.90204  1142%     -   15s
     0     0  -19.45610    0    7   -1.60223  -19.45610  1114%     -   15s
     0     0  -15.38682    0    6   -1.60223  -15.38682   860%     -   15s

Explored 1 nodes (59 simplex iterations) in 15.58 seconds
Thread count was 8 (of 8 available processors)

Solution count 3: -1.60223 -1.1549 0.670399 
No other solutions better than -1.60223

Optimal solution found (tolerance 1.00e-04)
Best objective -1.602233743874e+00, best bound -1.602233743874e+00, gap 0.0000%

User-callback calls 138, time in user-callback 19.19 sec
